letting n = 8
letting board=[[3, 3, 7, 7, 3, 0, 0, 0], [3, 2, 7, 7, 3, 0, 0, 0], [3, 5, 5, 3, 3, 0, 0, 0], [3, 5, 5, 3, 3, 3, 3, 3], [3, 3, 3, 4, 4, 4, 3, 3], [3, 3, 3, 4, 4, 4, 3, 3], [1, 1, 3, 4, 4, 4, 6, 3], [1, 1, 3, 3, 3, 3, 3, 3]]
